% Auto-generated by scripts/generate_dzn.py
% problem_type   = regex
% instance       = regex_16
% source_json    = instances_json/2_high_blowup/regex_16.json
% blowup         = 13.5
% representation = DFA

mode = 0;

var_count = 39;
Q = 189;
S = 2;
q0 = 1;
F = {130, 131, 132, 133, 134, 135, 136, 137, 138, 139, 140, 141, 142, 143, 144, 145, 146, 147, 148, 149, 150, 151, 152, 153, 154, 155, 156, 157, 158, 159, 160, 161, 162, 163, 164, 165, 166, 167, 168, 169, 170, 171, 172, 173, 174, 175, 176, 177, 178, 179, 180, 181, 182, 183, 184, 185, 186, 187, 188, 189};
d_dfa = array2d(1..189, 1..2, [
  1, 2,
  1, 3,
  4, 3,
  6, 5,
  8, 7,
  8, 9,
  11, 10,
  13, 12,
  13, 10,
  15, 14,
  17, 16,
  18, 14,
  18, 19,
  21, 20,
  23, 22,
  25, 24,
  25, 26,
  28, 27,
  28, 20,
  30, 29,
  32, 31,
  34, 33,
  34, 35,
  37, 36,
  39, 38,
  39, 36,
  40, 29,
  40, 41,
  43, 42,
  45, 44,
  47, 46,
  47, 48,
  50, 49,
  52, 51,
  52, 49,
  54, 53,
  56, 55,
  57, 53,
  57, 58,
  60, 59,
  60, 42,
  62, 61,
  64, 63,
  66, 65,
  66, 67,
  69, 68,
  71, 70,
  71, 68,
  73, 72,
  75, 74,
  76, 72,
  76, 77,
  79, 78,
  81, 80,
  83, 82,
  83, 84,
  86, 85,
  86, 78,
  87, 61,
  87, 88,
  90, 89,
  92, 91,
  94, 93,
  94, 95,
  97, 96,
  99, 98,
  99, 96,
  101, 100,
  103, 102,
  104, 100,
  104, 105,
  107, 106,
  109, 108,
  111, 110,
  111, 112,
  114, 113,
  114, 106,
  116, 115,
  118, 117,
  120, 119,
  120, 121,
  123, 122,
  125, 124,
  125, 122,
  126, 115,
  126, 127,
  129, 128,
  129, 89,
  131, 130,
  133, 132,
  135, 134,
  135, 136,
  138, 137,
  140, 139,
  140, 137,
  142, 141,
  144, 143,
  145, 141,
  145, 146,
  148, 147,
  150, 149,
  152, 151,
  152, 153,
  155, 154,
  155, 147,
  157, 156,
  159, 158,
  161, 160,
  161, 162,
  164, 163,
  166, 165,
  166, 163,
  167, 156,
  167, 168,
  170, 169,
  172, 171,
  174, 173,
  174, 175,
  177, 176,
  179, 178,
  179, 176,
  181, 180,
  183, 182,
  184, 180,
  184, 185,
  187, 186,
  187, 169,
  188, 130,
  188, 189,
  4, 3,
  6, 5,
  8, 7,
  8, 9,
  11, 10,
  13, 12,
  13, 10,
  15, 14,
  17, 16,
  18, 14,
  18, 19,
  21, 20,
  23, 22,
  25, 24,
  25, 26,
  28, 27,
  28, 20,
  30, 29,
  32, 31,
  34, 33,
  34, 35,
  37, 36,
  39, 38,
  39, 36,
  40, 29,
  40, 41,
  43, 42,
  45, 44,
  47, 46,
  47, 48,
  50, 49,
  52, 51,
  52, 49,
  54, 53,
  56, 55,
  57, 53,
  57, 58,
  60, 59,
  60, 42,
  62, 61,
  64, 63,
  66, 65,
  66, 67,
  69, 68,
  71, 70,
  71, 68,
  73, 72,
  75, 74,
  76, 72,
  76, 77,
  79, 78,
  81, 80,
  83, 82,
  83, 84,
  86, 85,
  86, 78,
  87, 61,
  87, 88,
  1, 2,
  1, 3
]);
d_nfa = array2d(1..189, 1..2, [
  {}, {},
  {}, {},
  {}, {},
  {}, {},
  {}, {},
  {}, {},
  {}, {},
  {}, {},
  {}, {},
  {}, {},
  {}, {},
  {}, {},
  {}, {},
  {}, {},
  {}, {},
  {}, {},
  {}, {},
  {}, {},
  {}, {},
  {}, {},
  {}, {},
  {}, {},
  {}, {},
  {}, {},
  {}, {},
  {}, {},
  {}, {},
  {}, {},
  {}, {},
  {}, {},
  {}, {},
  {}, {},
  {}, {},
  {}, {},
  {}, {},
  {}, {},
  {}, {},
  {}, {},
  {}, {},
  {}, {},
  {}, {},
  {}, {},
  {}, {},
  {}, {},
  {}, {},
  {}, {},
  {}, {},
  {}, {},
  {}, {},
  {}, {},
  {}, {},
  {}, {},
  {}, {},
  {}, {},
  {}, {},
  {}, {},
  {}, {},
  {}, {},
  {}, {},
  {}, {},
  {}, {},
  {}, {},
  {}, {},
  {}, {},
  {}, {},
  {}, {},
  {}, {},
  {}, {},
  {}, {},
  {}, {},
  {}, {},
  {}, {},
  {}, {},
  {}, {},
  {}, {},
  {}, {},
  {}, {},
  {}, {},
  {}, {},
  {}, {},
  {}, {},
  {}, {},
  {}, {},
  {}, {},
  {}, {},
  {}, {},
  {}, {},
  {}, {},
  {}, {},
  {}, {},
  {}, {},
  {}, {},
  {}, {},
  {}, {},
  {}, {},
  {}, {},
  {}, {},
  {}, {},
  {}, {},
  {}, {},
  {}, {},
  {}, {},
  {}, {},
  {}, {},
  {}, {},
  {}, {},
  {}, {},
  {}, {},
  {}, {},
  {}, {},
  {}, {},
  {}, {},
  {}, {},
  {}, {},
  {}, {},
  {}, {},
  {}, {},
  {}, {},
  {}, {},
  {}, {},
  {}, {},
  {}, {},
  {}, {},
  {}, {},
  {}, {},
  {}, {},
  {}, {},
  {}, {},
  {}, {},
  {}, {},
  {}, {},
  {}, {},
  {}, {},
  {}, {},
  {}, {},
  {}, {},
  {}, {},
  {}, {},
  {}, {},
  {}, {},
  {}, {},
  {}, {},
  {}, {},
  {}, {},
  {}, {},
  {}, {},
  {}, {},
  {}, {},
  {}, {},
  {}, {},
  {}, {},
  {}, {},
  {}, {},
  {}, {},
  {}, {},
  {}, {},
  {}, {},
  {}, {},
  {}, {},
  {}, {},
  {}, {},
  {}, {},
  {}, {},
  {}, {},
  {}, {},
  {}, {},
  {}, {},
  {}, {},
  {}, {},
  {}, {},
  {}, {},
  {}, {},
  {}, {},
  {}, {},
  {}, {},
  {}, {},
  {}, {},
  {}, {},
  {}, {},
  {}, {},
  {}, {},
  {}, {},
  {}, {},
  {}, {},
  {}, {},
  {}, {},
  {}, {},
  {}, {},
  {}, {}
]);
